NAME : ftv35.80.1996.tour
COMMENT : Length = 1996
COMMENT : Found by LKH [Keld Helsgaun] Tue Dec 11 00:01:48 2018
TYPE : TOUR
DIMENSION : 37
TOUR_SECTION
1
2
27
17
16
12
14
13
9
6
8
7
5
36
33
32
31
28
24
26
18
11
34
19
21
22
23
29
30
25
20
35
10
15
37
3
4
-1
EOF
